% Auto-generated by scripts/generate_dzn.py
% problem_type   = regex
% instance       = regex_36
% source_json    = instances_json/1_medium_blowup/regex_36.json
% blowup         = 3.35
% representation = NFA

mode = 1;

var_count = 21;
n_constraints = 2;
Q = 11;
S = 3;
q0 = [1, 1];
F = [{9}, {11}];
weights = [3, 5, 2, 5, 1, 1, 4, 7, 1, 2, 4, 6, 10, 6, 7, 4, 3, 5, 8, 5, 1];
d_dfa = array3d(1..2, 1..11, 1..3, [
  % k = 1
    0, 0, 0,
    0, 0, 0,
    0, 0, 0,
    0, 0, 0,
    0, 0, 0,
    0, 0, 0,
    0, 0, 0,
    0, 0, 0,
    0, 0, 0,
    0, 0, 0,
    0, 0, 0,

  % k = 2
    0, 0, 0,
    0, 0, 0,
    0, 0, 0,
    0, 0, 0,
    0, 0, 0,
    0, 0, 0,
    0, 0, 0,
    0, 0, 0,
    0, 0, 0,
    0, 0, 0,
    0, 0, 0
]);
d_nfa = array3d(1..2, 1..11, 1..3, [
  % k = 1
    {1}, {1}, {1, 2},
    {}, {3}, {},
    {4}, {4}, {4},
    {5}, {5}, {5},
    {6}, {6}, {6},
    {7}, {7}, {7},
    {8}, {8}, {8},
    {9}, {9}, {9},
    {}, {}, {},
    {}, {}, {},
    {}, {}, {},

  % k = 2
    {1}, {2}, {1},
    {2}, {3}, {2},
    {3}, {4}, {3},
    {4}, {5}, {4},
    {5}, {6}, {5},
    {6}, {7}, {6},
    {7}, {8}, {7},
    {8}, {9}, {8},
    {9}, {10}, {9},
    {10}, {11}, {10},
    {11}, {}, {11}
]);
